data/solutions/planning/wellformed/intermediate/weighting/wellformed_intermediate_instance12_gurobi.sol
Elapsed time: 1000.24
Nodes explored: 1882825
Nodes left: 161712
Relative gap: 0.105
Upper bound: 212147327.0
Lower bound: 211924679
C[0]=207405.0
C[1]=207377.0
C[2]=207377.0
C[3]=207353.0
C[4]=207230.0
C[5]=207200.0
C[6]=207180.0
C[7]=207061.0
C[8]=206947.0
C[9]=206469.0
y[0]=8
y[1]=3
y[2]=6
y[3]=1
y[4]=5
y[5]=5
y[6]=5
y[7]=4
y[8]=4
y[9]=1
y[10]=0
y[11]=7
y[12]=1
y[13]=6
y[14]=6
y[15]=5
y[16]=8
y[17]=4
y[18]=4
y[19]=1
y[20]=3
y[21]=6
y[22]=8
y[23]=1
y[24]=2
y[25]=0
y[26]=9
y[27]=4
y[28]=5
y[29]=5
y[30]=1
y[31]=0
y[32]=0
y[33]=3
y[34]=1
y[35]=3
y[36]=1
y[37]=9
y[38]=1
y[39]=5
y[40]=6
y[41]=8
y[42]=2
y[43]=9
y[44]=6
y[45]=1
y[46]=6
y[47]=1
y[48]=9
y[49]=1
y[50]=9
y[51]=9
y[52]=4
y[53]=7
y[54]=9
y[55]=4
y[56]=7
y[57]=0
y[58]=8
y[59]=2
y[60]=8
y[61]=1
y[62]=1
y[63]=1
y[64]=5
y[65]=5
y[66]=3
y[67]=0
y[68]=8
y[69]=5
y[70]=8
y[71]=7
y[72]=2
y[73]=5
y[74]=9
y[75]=1
y[76]=2
y[77]=7
y[78]=5
y[79]=1
y[80]=1
y[81]=8
y[82]=0
y[83]=6
y[84]=9
y[85]=3
y[86]=2
y[87]=7
y[88]=1
y[89]=5
y[90]=8
y[91]=0
y[92]=8
y[93]=1
y[94]=8
y[95]=2
y[96]=7
y[97]=2
y[98]=7
y[99]=9
y[100]=8
y[101]=1
y[102]=1
y[103]=6
y[104]=2
y[105]=0
y[106]=4
y[107]=3
y[108]=7
y[109]=1
y[110]=6
y[111]=4
y[112]=2
y[113]=3
y[114]=5
y[115]=5
y[116]=3
y[117]=3
y[118]=0
y[119]=9
y[120]=6
y[121]=6
y[122]=2
y[123]=7
y[124]=6
y[125]=9
y[126]=6
y[127]=0
y[128]=7
y[129]=2
y[130]=2
y[131]=0
y[132]=9
y[133]=0
y[134]=4
y[135]=5
y[136]=8
y[137]=0
y[138]=7
y[139]=9
y[140]=0
y[141]=1
y[142]=3
y[143]=5
y[144]=6
y[145]=1
y[146]=7
y[147]=3
y[148]=6
y[149]=8
y[150]=7
y[151]=4
y[152]=6
y[153]=6
y[154]=5
y[155]=2
y[156]=1
y[157]=1
y[158]=4
y[159]=9
y[160]=4
y[161]=5
y[162]=8
y[163]=7
y[164]=9
y[165]=0
y[166]=2
y[167]=0
y[168]=6
y[169]=6
y[170]=2
y[171]=6
y[172]=3
y[173]=4
y[174]=9
y[175]=9
y[176]=0
y[177]=3
y[178]=3
y[179]=6
y[180]=4
y[181]=1
y[182]=7
y[183]=0
y[184]=6
y[185]=6
y[186]=9
y[187]=3
y[188]=0
y[189]=7
y[190]=0
y[191]=1
y[192]=3
y[193]=0
y[194]=1
y[195]=8
y[196]=6
y[197]=0
y[198]=3
y[199]=1
