data/solutions/planning/wellformed/intermediate/weighting/wellformed_intermediate_instance12_gurobi.log

Gurobi 6.5.2 (linux64) logging started Sat Mar  3 00:07:34 2018

Changed value of parameter LogFile to data/solutions/planning/wellformed/intermediate/weighting/wellformed_intermediate_instance12_gurobi.log
   Prev: gurobi.log  Default: 
Changed value of parameter Threads to 1
   Prev: 0  Min: 0  Max: 1024  Default: 0
Optimize a model with 220 rows, 2011 columns and 4029 nonzeros
Coefficient statistics:
  Matrix range    [1e+00, 2e+04]
  Objective range [1e+00, 5e+02]
  Bounds range    [1e+00, 1e+00]
  RHS range       [1e+00, 1e+00]
Presolve removed 3 rows and 3 columns
Presolve time: 0.01s
Presolved: 217 rows, 2008 columns, 4024 nonzeros
Variable types: 0 continuous, 2008 integer (2000 binary)
Found heuristic solution: objective 1.060659e+09

Root relaxation: objective 2.119246e+08, 331 iterations, 0.00 seconds

    Nodes    |    Current Node    |     Objective Bounds      |     Work
 Expl Unexpl |  Obj  Depth IntInf | Incumbent    BestBd   Gap | It/Node Time

     0     0 2.1192e+08    0   23 1.0607e+09 2.1192e+08  80.0%     -    0s
H    0     0                    2.763815e+08 2.1192e+08  23.3%     -    0s
     0     0 2.1192e+08    0   34 2.7638e+08 2.1192e+08  23.3%     -    0s
     0     0 2.1192e+08    0   31 2.7638e+08 2.1192e+08  23.3%     -    0s
     0     0 2.1192e+08    0   34 2.7638e+08 2.1192e+08  23.3%     -    0s
     0     0 2.1192e+08    0   23 2.7638e+08 2.1192e+08  23.3%     -    0s
     0     2 2.1192e+08    0   21 2.7638e+08 2.1192e+08  23.3%     -    0s
H   27    27                    2.167891e+08 2.1192e+08  2.24%   9.7    0s
H  737   711                    2.122900e+08 2.1192e+08  0.17%   3.0    0s
H 5887  4393                    2.122854e+08 2.1192e+08  0.17%   4.4    3s
H 7020  5455                    2.122421e+08 2.1192e+08  0.15%   4.3    4s
  8275  6612 2.1194e+08  230   13 2.1224e+08 2.1192e+08  0.15%   4.2    5s
 20513 17801 2.1211e+08  179   17 2.1224e+08 2.1192e+08  0.15%   3.9   10s
H21631 16627                    2.121537e+08 2.1192e+08  0.11%   3.9   10s
H32209 26201                    2.121508e+08 2.1192e+08  0.11%   3.7   14s
 35129 28453 2.1192e+08  277   13 2.1215e+08 2.1192e+08  0.11%   3.5   15s
H44568 36009                    2.121506e+08 2.1192e+08  0.11%   3.7   19s
 46362 37271 infeasible  557      2.1215e+08 2.1192e+08  0.11%   3.8   20s
 58822 46743 2.1192e+08  519   12 2.1215e+08 2.1192e+08  0.11%   3.8   25s
 69041 51480 2.1192e+08  527    8 2.1215e+08 2.1192e+08  0.11%   3.9   30s
 79934 54575 infeasible  553      2.1215e+08 2.1192e+08  0.11%   4.0   35s
 90177 57941 2.1192e+08  540    9 2.1215e+08 2.1192e+08  0.11%   4.1   40s
 98042 58617 infeasible  544      2.1215e+08 2.1192e+08  0.11%   4.1   45s
 105513 58757 infeasible  546      2.1215e+08 2.1192e+08  0.11%   4.1   50s
 113339 58819 infeasible  539      2.1215e+08 2.1192e+08  0.11%   4.0   55s
 119957 58292 2.1192e+08  540    8 2.1215e+08 2.1192e+08  0.11%   4.1   60s
 126342 58150 infeasible  543      2.1215e+08 2.1192e+08  0.11%   4.2   65s
 132681 58140 infeasible  545      2.1215e+08 2.1192e+08  0.11%   4.2   70s
H135632 58357                    2.121473e+08 2.1192e+08  0.10%   4.3   72s
 138713 58423 2.1192e+08  530    7 2.1215e+08 2.1192e+08  0.10%   4.3   75s
 144918 58414 2.1192e+08  540    8 2.1215e+08 2.1192e+08  0.10%   4.4   80s
 150801 58409 infeasible  536      2.1215e+08 2.1192e+08  0.10%   4.5   85s
 156882 58456 2.1192e+08  539    7 2.1215e+08 2.1192e+08  0.10%   4.6   90s
 163004 58939 2.1192e+08  541    6 2.1215e+08 2.1192e+08  0.10%   4.6   95s
 169101 58900 2.1192e+08  549    7 2.1215e+08 2.1192e+08  0.10%   4.7  100s
 175509 59196 2.1192e+08  536    8 2.1215e+08 2.1192e+08  0.10%   4.7  105s
 181875 59172 infeasible  542      2.1215e+08 2.1192e+08  0.10%   4.7  110s
 188277 59161 2.1192e+08  544    5 2.1215e+08 2.1192e+08  0.10%   4.7  115s
 196535 59308 2.1192e+08  549    7 2.1215e+08 2.1192e+08  0.10%   4.7  120s
 203629 59311 infeasible  544      2.1215e+08 2.1192e+08  0.10%   4.7  125s
 209963 59154 2.1192e+08  534    8 2.1215e+08 2.1192e+08  0.10%   4.8  130s
 216224 59149 infeasible  546      2.1215e+08 2.1192e+08  0.10%   4.8  135s
 222007 59144 infeasible  541      2.1215e+08 2.1192e+08  0.10%   4.8  140s
 228347 59254 2.1192e+08  529    7 2.1215e+08 2.1192e+08  0.10%   4.8  145s
 235439 59233 infeasible  546      2.1215e+08 2.1192e+08  0.10%   4.8  150s
 241638 59119 2.1192e+08  535    8 2.1215e+08 2.1192e+08  0.10%   4.8  155s
 248384 59743 2.1192e+08  545    8 2.1215e+08 2.1192e+08  0.10%   4.9  160s
 254214 60046 infeasible  557      2.1215e+08 2.1192e+08  0.10%   4.9  165s
 260891 62301 infeasible  532      2.1215e+08 2.1192e+08  0.10%   4.9  170s
 268670 62534 2.1192e+08  534    8 2.1215e+08 2.1192e+08  0.10%   4.9  175s
 276112 62546 infeasible  526      2.1215e+08 2.1192e+08  0.10%   4.9  180s
 283172 63489 infeasible  537      2.1215e+08 2.1192e+08  0.10%   4.9  185s
 289545 65054 2.1192e+08  538   10 2.1215e+08 2.1192e+08  0.10%   4.9  190s
 296194 67497 infeasible  511      2.1215e+08 2.1192e+08  0.10%   4.9  195s
 304471 71162 2.1192e+08  438   11 2.1215e+08 2.1192e+08  0.10%   4.8  200s
 313528 74616 2.1192e+08  541    8 2.1215e+08 2.1192e+08  0.10%   4.8  205s
 322991 75211 infeasible  549      2.1215e+08 2.1192e+08  0.10%   4.7  210s
 333026 75183 infeasible  559      2.1215e+08 2.1192e+08  0.10%   4.7  215s
 338500 75185 2.1192e+08  548    8 2.1215e+08 2.1192e+08  0.10%   4.6  220s
 347714 75204 2.1192e+08  549    8 2.1215e+08 2.1192e+08  0.10%   4.6  225s
 357476 75216 2.1192e+08  542    8 2.1215e+08 2.1192e+08  0.10%   4.5  230s
 366661 75171 2.1192e+08  546    8 2.1215e+08 2.1192e+08  0.10%   4.5  235s
 374938 75159 2.1192e+08  553    7 2.1215e+08 2.1192e+08  0.10%   4.5  240s
 383971 75358 infeasible  559      2.1215e+08 2.1192e+08  0.10%   4.4  245s
 393445 75309 2.1192e+08  537    8 2.1215e+08 2.1192e+08  0.10%   4.4  250s
 402548 75270 2.1192e+08  539    8 2.1215e+08 2.1192e+08  0.10%   4.3  255s
 411211 75314 infeasible  547      2.1215e+08 2.1192e+08  0.10%   4.3  260s
 419771 75403 infeasible  538      2.1215e+08 2.1192e+08  0.10%   4.3  265s
 428235 75323 infeasible  546      2.1215e+08 2.1192e+08  0.10%   4.3  270s
 436605 75272 infeasible  545      2.1215e+08 2.1192e+08  0.10%   4.2  275s
 445445 75267 2.1192e+08  541    8 2.1215e+08 2.1192e+08  0.10%   4.2  280s
 454152 75288 infeasible  542      2.1215e+08 2.1192e+08  0.10%   4.2  285s
 463215 75278 infeasible  547      2.1215e+08 2.1192e+08  0.10%   4.2  290s
 472098 75305 2.1192e+08  534    8 2.1215e+08 2.1192e+08  0.10%   4.2  295s
 481042 75337 infeasible  550      2.1215e+08 2.1192e+08  0.10%   4.1  300s
 489160 75259 2.1192e+08  540    8 2.1215e+08 2.1192e+08  0.10%   4.1  305s
 498223 75227 2.1192e+08  535    8 2.1215e+08 2.1192e+08  0.10%   4.1  310s
 507863 75233 2.1192e+08  556    8 2.1215e+08 2.1192e+08  0.10%   4.1  315s
 516876 75189 2.1192e+08  545    8 2.1215e+08 2.1192e+08  0.10%   4.0  320s
 526070 75209 2.1192e+08  548    8 2.1215e+08 2.1192e+08  0.10%   4.0  325s
 534784 75159 2.1192e+08  542    8 2.1215e+08 2.1192e+08  0.10%   4.0  330s
 543796 75193 2.1192e+08  545    7 2.1215e+08 2.1192e+08  0.10%   4.0  335s
 552327 75207 2.1192e+08  549    8 2.1215e+08 2.1192e+08  0.10%   4.0  340s
 561391 75159 infeasible  546      2.1215e+08 2.1192e+08  0.10%   4.0  345s
 569951 75147 2.1192e+08  548    8 2.1215e+08 2.1192e+08  0.10%   3.9  350s
 578884 75288 infeasible  541      2.1215e+08 2.1192e+08  0.10%   3.9  355s
 588199 75261 2.1192e+08  542    8 2.1215e+08 2.1192e+08  0.10%   3.9  360s
 597617 75241 2.1192e+08  548    8 2.1215e+08 2.1192e+08  0.10%   3.9  365s
 605881 75224 2.1192e+08  545    8 2.1215e+08 2.1192e+08  0.10%   3.9  370s
 615067 75208 infeasible  540      2.1215e+08 2.1192e+08  0.10%   3.9  375s
 623699 75210 2.1192e+08  548    8 2.1215e+08 2.1192e+08  0.10%   3.8  380s
 633071 75230 2.1192e+08  555    8 2.1215e+08 2.1192e+08  0.10%   3.8  385s
 644759 75236 2.1192e+08  548    5 2.1215e+08 2.1192e+08  0.10%   3.8  390s
 658000 75211 2.1192e+08  552    7 2.1215e+08 2.1192e+08  0.10%   3.8  395s
 672416 75175 infeasible  554      2.1215e+08 2.1192e+08  0.10%   3.8  400s
 685333 75175 infeasible  554      2.1215e+08 2.1192e+08  0.10%   3.8  405s
 699736 75155 infeasible  552      2.1215e+08 2.1192e+08  0.10%   3.7  410s
 712990 75172 infeasible  554      2.1215e+08 2.1192e+08  0.10%   3.7  415s
 727009 75135 2.1192e+08  556    8 2.1215e+08 2.1192e+08  0.10%   3.7  420s
 740646 75238 2.1192e+08  543    8 2.1215e+08 2.1192e+08  0.10%   3.7  425s
 754831 75359 infeasible  549      2.1215e+08 2.1192e+08  0.10%   3.7  430s
 768122 75290 infeasible  546      2.1215e+08 2.1192e+08  0.10%   3.7  435s
 780936 75288 2.1192e+08  543    8 2.1215e+08 2.1192e+08  0.10%   3.6  440s
 794886 75276 2.1192e+08  547    6 2.1215e+08 2.1192e+08  0.10%   3.6  445s
 805573 76331 2.1192e+08  543   10 2.1215e+08 2.1192e+08  0.10%   3.6  450s
 814025 78178 2.1192e+08  542   10 2.1215e+08 2.1192e+08  0.10%   3.6  455s
 824791 79279 2.1192e+08  549    8 2.1215e+08 2.1192e+08  0.10%   3.6  460s
 834637 78971 infeasible  548      2.1215e+08 2.1192e+08  0.10%   3.7  465s
 844900 80028 2.1192e+08  539    8 2.1215e+08 2.1192e+08  0.10%   3.7  470s
 856122 80143 2.1192e+08  545    9 2.1215e+08 2.1192e+08  0.10%   3.7  475s
 867551 81299 2.1192e+08  544    9 2.1215e+08 2.1192e+08  0.10%   3.7  480s
 878556 83291 2.1192e+08  533   10 2.1215e+08 2.1192e+08  0.10%   3.7  485s
 889468 85878 2.1192e+08  501   10 2.1215e+08 2.1192e+08  0.10%   3.7  490s
 901851 88504 2.1192e+08  522   10 2.1215e+08 2.1192e+08  0.10%   3.7  495s
 914015 90630 infeasible  551      2.1215e+08 2.1192e+08  0.10%   3.7  500s
 925704 92487 2.1192e+08  536   10 2.1215e+08 2.1192e+08  0.10%   3.7  505s
 936675 93760 2.1192e+08  531   10 2.1215e+08 2.1192e+08  0.10%   3.7  510s
 947609 93754 infeasible  545      2.1215e+08 2.1192e+08  0.10%   3.7  515s
 958401 93912 infeasible  535      2.1215e+08 2.1192e+08  0.10%   3.7  520s
 970312 94520 infeasible  543      2.1215e+08 2.1192e+08  0.10%   3.7  525s
 982289 95188 2.1192e+08  530    8 2.1215e+08 2.1192e+08  0.10%   3.7  530s
 995462 96562 2.1192e+08  551   10 2.1215e+08 2.1192e+08  0.10%   3.7  535s
 1008597 97442 2.1192e+08  542    9 2.1215e+08 2.1192e+08  0.10%   3.7  540s
 1020568 97914 infeasible  544      2.1215e+08 2.1192e+08  0.10%   3.7  545s
 1033304 98883 2.1192e+08  534    8 2.1215e+08 2.1192e+08  0.10%   3.7  550s
 1043954 99217 2.1192e+08  549   10 2.1215e+08 2.1192e+08  0.10%   3.7  555s
 1057081 100092 2.1192e+08  548    8 2.1215e+08 2.1192e+08  0.10%   3.7  560s
 1069328 100652 2.1192e+08  538    9 2.1215e+08 2.1192e+08  0.10%   3.7  565s
 1078811 101278 infeasible  545      2.1215e+08 2.1192e+08  0.10%   3.7  570s
 1086908 101712 2.1192e+08  542    8 2.1215e+08 2.1192e+08  0.10%   3.7  575s
 1094758 101802 infeasible  546      2.1215e+08 2.1192e+08  0.10%   3.7  580s
 1102351 102189 2.1192e+08  541    6 2.1215e+08 2.1192e+08  0.10%   3.7  585s
 1109125 102265 infeasible  549      2.1215e+08 2.1192e+08  0.10%   3.7  590s
 1115657 102276 infeasible  545      2.1215e+08 2.1192e+08  0.10%   3.7  595s
 1122056 102698 infeasible  545      2.1215e+08 2.1192e+08  0.10%   3.7  600s
 1128766 103009 2.1192e+08  545    8 2.1215e+08 2.1192e+08  0.10%   3.7  605s
 1136818 103625 2.1192e+08  549    7 2.1215e+08 2.1192e+08  0.10%   3.7  610s
 1145553 104296 2.1192e+08  550   10 2.1215e+08 2.1192e+08  0.10%   3.7  615s
 1154869 104932 2.1192e+08  546   10 2.1215e+08 2.1192e+08  0.10%   3.7  620s
 1164120 105413 2.1192e+08  545   10 2.1215e+08 2.1192e+08  0.10%   3.7  625s
 1173053 105910 2.1192e+08  544   10 2.1215e+08 2.1192e+08  0.10%   3.7  630s
 1181584 106382 2.1192e+08  545    8 2.1215e+08 2.1192e+08  0.10%   3.7  635s
 1188864 106739 infeasible  553      2.1215e+08 2.1192e+08  0.10%   3.7  640s
 1195786 107133 2.1192e+08  538    8 2.1215e+08 2.1192e+08  0.10%   3.7  645s
 1202356 107499 2.1192e+08  543    8 2.1215e+08 2.1192e+08  0.10%   3.7  650s
 1210712 107961 2.1192e+08  555   10 2.1215e+08 2.1192e+08  0.10%   3.7  655s
 1220665 108681 2.1192e+08  550    8 2.1215e+08 2.1192e+08  0.10%   3.7  660s
 1229133 109046 2.1192e+08  544    7 2.1215e+08 2.1192e+08  0.10%   3.7  665s
 1238086 109449 2.1192e+08  545    7 2.1215e+08 2.1192e+08  0.10%   3.7  670s
 1246164 109824 2.1192e+08  547   10 2.1215e+08 2.1192e+08  0.10%   3.7  675s
 1255526 110365 2.1192e+08  545   10 2.1215e+08 2.1192e+08  0.10%   3.7  680s
 1264768 110961 2.1192e+08  553   10 2.1215e+08 2.1192e+08  0.10%   3.7  685s
 1274289 111586 2.1192e+08  548   10 2.1215e+08 2.1192e+08  0.10%   3.7  690s
 1283090 112123 2.1192e+08  541    8 2.1215e+08 2.1192e+08  0.10%   3.7  695s
 1290932 112470 infeasible  545      2.1215e+08 2.1192e+08  0.10%   3.7  700s
 1297494 112439 2.1192e+08  535    8 2.1215e+08 2.1192e+08  0.10%   3.7  705s
 1303474 112819 2.1192e+08  543    9 2.1215e+08 2.1192e+08  0.10%   3.7  710s
 1311467 113191 2.1192e+08  547    8 2.1215e+08 2.1192e+08  0.10%   3.7  715s
 1320062 113735 2.1192e+08  552    8 2.1215e+08 2.1192e+08  0.10%   3.7  720s
 1328550 114311 2.1192e+08  543    8 2.1215e+08 2.1192e+08  0.10%   3.7  725s
 1336011 114551 infeasible  543      2.1215e+08 2.1192e+08  0.10%   3.7  730s
 1342692 115138 2.1192e+08  549   10 2.1215e+08 2.1192e+08  0.10%   3.8  735s
 1350993 115540 infeasible  550      2.1215e+08 2.1192e+08  0.10%   3.8  740s
 1359714 115945 2.1192e+08  549    9 2.1215e+08 2.1192e+08  0.10%   3.7  745s
 1369129 116347 infeasible  552      2.1215e+08 2.1192e+08  0.10%   3.7  750s
 1377976 116797 2.1192e+08  543    8 2.1215e+08 2.1192e+08  0.10%   3.7  755s
 1385919 117441 2.1192e+08  551   10 2.1215e+08 2.1192e+08  0.10%   3.7  760s
 1393599 117806 2.1192e+08  539    8 2.1215e+08 2.1192e+08  0.10%   3.7  765s
 1401826 118132 infeasible  550      2.1215e+08 2.1192e+08  0.10%   3.7  770s
 1410629 118528 2.1192e+08  542    8 2.1215e+08 2.1192e+08  0.10%   3.7  775s
 1418403 118862 2.1192e+08  543   10 2.1215e+08 2.1192e+08  0.10%   3.7  780s
 1426525 119334 2.1192e+08  541    8 2.1215e+08 2.1192e+08  0.10%   3.7  785s
 1434608 119609 2.1192e+08  549   10 2.1215e+08 2.1192e+08  0.10%   3.7  790s
 1441893 120092 2.1192e+08  550    7 2.1215e+08 2.1192e+08  0.10%   3.7  795s
 1450344 120577 2.1192e+08  549    7 2.1215e+08 2.1192e+08  0.10%   3.8  800s
 1462970 121299 infeasible  541      2.1215e+08 2.1192e+08  0.10%   3.8  805s
 1475273 121962 2.1192e+08  539   10 2.1215e+08 2.1192e+08  0.10%   3.8  810s
 1486720 122662 infeasible  539      2.1215e+08 2.1192e+08  0.10%   3.8  815s
 1496199 123027 infeasible  549      2.1215e+08 2.1192e+08  0.10%   3.8  820s
 1508699 123780 2.1192e+08  559    7 2.1215e+08 2.1192e+08  0.10%   3.8  825s
 1520675 124515 2.1192e+08  537    8 2.1215e+08 2.1192e+08  0.10%   3.8  830s
 1531193 125102 infeasible  553      2.1215e+08 2.1192e+08  0.10%   3.8  835s
 1543507 126028 infeasible  555      2.1215e+08 2.1192e+08  0.10%   3.8  840s
 1556408 126810 2.1192e+08  556   10 2.1215e+08 2.1192e+08  0.10%   3.8  845s
 1565170 127444 2.1192e+08  546   10 2.1215e+08 2.1192e+08  0.10%   3.8  850s
 1573926 128011 2.1192e+08  548   10 2.1215e+08 2.1192e+08  0.10%   3.8  855s
 1582369 128398 infeasible  543      2.1215e+08 2.1192e+08  0.10%   3.8  860s
 1590525 128854 infeasible  551      2.1215e+08 2.1192e+08  0.10%   3.8  865s
 1596534 129197 infeasible  548      2.1215e+08 2.1192e+08  0.10%   3.8  870s
 1604627 129821 2.1192e+08  545    8 2.1215e+08 2.1192e+08  0.10%   3.8  875s
 1612316 130176 infeasible  546      2.1215e+08 2.1192e+08  0.10%   3.8  880s
 1620270 130660 infeasible  554      2.1215e+08 2.1192e+08  0.10%   3.8  885s
 1629304 131398 infeasible  542      2.1215e+08 2.1192e+08  0.10%   3.8  890s
 1637029 133511 2.1192e+08  520    9 2.1215e+08 2.1192e+08  0.10%   3.8  895s
 1646672 137661 infeasible  540      2.1215e+08 2.1192e+08  0.10%   3.8  900s
 1656694 139141 infeasible  518      2.1215e+08 2.1192e+08  0.10%   3.8  905s
 1666842 141501 2.1192e+08  538   10 2.1215e+08 2.1192e+08  0.10%   3.8  910s
 1679919 144392 2.1192e+08  542    9 2.1215e+08 2.1192e+08  0.10%   3.8  915s
 1695307 146539 infeasible  533      2.1215e+08 2.1192e+08  0.10%   3.8  920s
 1709761 149349 infeasible  528      2.1215e+08 2.1192e+08  0.10%   3.8  925s
 1724514 151314 infeasible  523      2.1215e+08 2.1192e+08  0.10%   3.7  930s
 1738776 153019 2.1192e+08  544    9 2.1215e+08 2.1192e+08  0.10%   3.7  935s
 1752205 154944 2.1192e+08  529    9 2.1215e+08 2.1192e+08  0.10%   3.7  940s
 1765605 157151 infeasible  538      2.1215e+08 2.1192e+08  0.10%   3.7  945s
 1778855 160478 infeasible  528      2.1215e+08 2.1192e+08  0.10%   3.7  950s
 1791767 162051 2.1192e+08  537    7 2.1215e+08 2.1192e+08  0.10%   3.7  955s
 1804223 162928 infeasible  547      2.1215e+08 2.1192e+08  0.10%   3.7  960s
 1816559 163150 infeasible  536      2.1215e+08 2.1192e+08  0.10%   3.7  965s
 1828688 162995 infeasible  537      2.1215e+08 2.1192e+08  0.10%   3.7  970s
 1839452 162652 2.1192e+08  541    8 2.1215e+08 2.1192e+08  0.10%   3.7  975s
 1850114 162418 infeasible  546      2.1215e+08 2.1192e+08  0.10%   3.7  980s
 1861265 162281 infeasible  541      2.1215e+08 2.1192e+08  0.10%   3.7  985s
 1871602 161909 2.1192e+08  545    8 2.1215e+08 2.1192e+08  0.10%   3.7  990s
 1882825 161712 infeasible  538      2.1215e+08 2.1192e+08  0.10%   3.7  995s

Cutting planes:
  Gomory: 2
  MIR: 1

Explored 1893880 nodes (6996496 simplex iterations) in 1000.00 seconds
Thread count was 1 (of 8 available processors)

Time limit reached
Best objective 2.121473270000e+08, best bound 2.119246790000e+08, gap 0.1049%
